c generated by Julia
p edge 29 203
e 1 2
e 1 3
e 2 3
e 1 4
e 2 4
e 1 5
e 2 5
e 1 6
e 2 6
e 1 7
e 2 7
e 3 7
e 6 7
e 1 8
e 2 8
e 4 8
e 5 8
e 6 8
e 1 9
e 3 9
e 4 9
e 1 10
e 3 10
e 5 10
e 9 10
e 1 11
e 3 11
e 4 11
e 7 11
e 10 11
e 1 12
e 4 12
e 6 12
e 7 12
e 9 12
e 1 13
e 4 13
e 5 13
e 8 13
e 10 13
e 11 13
e 12 13
e 1 14
e 5 14
e 6 14
e 7 14
e 9 14
e 10 14
e 12 14
e 1 15
e 3 15
e 5 15
e 6 15
e 8 15
e 9 15
e 11 15
e 2 16
e 3 16
e 6 16
e 10 16
e 11 16
e 12 16
e 13 16
e 2 17
e 4 17
e 6 17
e 9 17
e 11 17
e 14 17
e 15 17
e 16 17
e 2 18
e 4 18
e 5 18
e 7 18
e 9 18
e 10 18
e 12 18
e 2 19
e 3 19
e 4 19
e 5 19
e 12 19
e 13 19
e 14 19
e 16 19
e 17 19
e 2 20
e 5 20
e 7 20
e 8 20
e 10 20
e 11 20
e 14 20
e 16 20
e 17 20
e 18 20
e 2 21
e 3 21
e 5 21
e 7 21
e 9 21
e 13 21
e 15 21
e 17 21
e 18 21
e 19 21
e 2 22
e 3 22
e 4 22
e 6 22
e 8 22
e 9 22
e 10 22
e 16 22
e 18 22
e 6 23
e 8 23
e 9 23
e 10 23
e 12 23
e 13 23
e 15 23
e 16 23
e 17 23
e 18 23
e 20 23
e 21 23
e 3 24
e 5 24
e 8 24
e 9 24
e 12 24
e 14 24
e 15 24
e 16 24
e 19 24
e 20 24
e 22 24
e 4 25
e 5 25
e 6 25
e 10 25
e 11 25
e 14 25
e 15 25
e 17 25
e 18 25
e 19 25
e 22 25
e 4 26
e 7 26
e 8 26
e 9 26
e 11 26
e 13 26
e 14 26
e 17 26
e 20 26
e 21 26
e 22 26
e 24 26
e 5 27
e 6 27
e 7 27
e 11 27
e 12 27
e 13 27
e 15 27
e 16 27
e 18 27
e 21 27
e 22 27
e 24 27
e 25 27
e 26 27
e 3 28
e 6 28
e 7 28
e 8 28
e 10 28
e 13 28
e 14 28
e 19 28
e 21 28
e 22 28
e 23 28
e 25 28
e 26 28
e 3 29
e 4 29
e 7 29
e 8 29
e 11 29
e 12 29
e 15 29
e 18 29
e 19 29
e 20 29
e 23 29
e 24 29
e 25 29
e 28 29
